20 43
1 2 2
1 3 1
1 4 1
1 5 4
2 3 1
2 4 5
2 5 5
3 4 5
3 5 4
4 5 3
5 6 5
6 7 5
6 8 5
6 9 2
6 10 3
7 8 3
7 9 3
7 10 4
8 9 5
8 10 3
9 10 1
10 11 5
11 12 1
11 13 2
11 14 3
11 15 1
12 13 4
12 14 3
12 15 4
13 14 5
13 15 3
14 15 5
15 16 3
16 17 5
16 18 3
16 19 3
16 20 4
17 18 1
17 19 4
17 20 2
18 19 1
18 20 4
19 20 5
